(set-logic QF_S)
(declare-fun var_0xINPUT_118649 () String)
(assert (and (= (len var_0xINPUT_118649) 0) (= (len var_0xINPUT_118649) 0) (not (= var_0xINPUT_118649 "pVEECEXk2p"))))
(check-sat var_0xINPUT_118649)